p cnf 48297 51
-16 14 -1 0
-17 16 -8 -1 0
-18 17 -1 0
-18 19 -1 0
-18 20 -1 0
-18 21 -1 0
-18 -26 -1 0
-18 -13 -1 0
-18 -27 -1 0
-18 -28 -1 0
-18 -29 -1 0
-18 32 -1 0
-18 33 -1 0
-18 34 -1 0
-18 36 -1 0
-6 18 -1 -39 0
-1 39 0
-67 65 -53 0
-68 67 -60 -53 0
-69 68 -53 0
-69 70 -53 0
-69 71 -53 0
-69 72 -53 0
-69 -74 -53 0
-69 -64 -53 0
-69 -75 -53 0
-58 69 -53 -78 0
-53 78 0
-107 105 -93 0
-108 107 -100 -93 0
-109 108 -93 0
-109 110 -93 0
-109 111 -93 0
-109 -114 -93 0
-109 -104 -93 0
-98 109 -93 -118 0
-93 118 0
22 -393 0
23 -393 0
24 -393 0
-393 -48291 0
-393 -48292 0
-393 48293 0
-393 48294 0
6 -41 0
8 -41 0
-41 98 0
-41 58 0
-41 60 0
-41 100 0
-105 -14 -72 75 -41 48291 48292 -48293 -48294 104 -110 -111 114 13 -19 -20 -21 -22 -23 -24 26 27 28 29 -32 -33 -34 -36 64 -65 -70 -71 74 0
